
******************************************************************************
This program contains Ipopt, a library for large-scale nonlinear optimization.
 Ipopt is released as open source code under the Eclipse Public License (EPL).
         For more information visit http://projects.coin-or.org/Ipopt
******************************************************************************

This is Ipopt version 3.13.2, running with linear solver pardiso.

Number of nonzeros in equality constraint Jacobian...:        0
Number of nonzeros in inequality constraint Jacobian.:    25600
Number of nonzeros in Lagrangian Hessian.............:        0

Total number of variables............................:    25600
                     variables with only lower bounds:        0
                variables with lower and upper bounds:    25600
                     variables with only upper bounds:        0
Total number of equality constraints.................:        0
Total number of inequality constraints...............:        1
        inequality constraints with only lower bounds:        0
   inequality constraints with lower and upper bounds:        1
        inequality constraints with only upper bounds:        0

iter    objective    inf_pr   inf_du lg(mu)  ||d||  lg(rg) alpha_du alpha_pr  ls
   0  6.9601068e+04 1.50e-08 1.00e+02   0.0 0.00e+00    -  0.00e+00 0.00e+00   0
   1  6.8123682e+04 3.94e-08 4.28e+01  -6.3 1.94e+01    -  2.00e-02 1.14e-02f  1
   2  6.4246125e+04 8.72e-10 3.18e+01  -0.5 5.76e-01    -  7.73e-01 9.18e-01f  1
   3  6.3576533e+04 0.00e+00 1.04e+01  -0.5 1.04e+00    -  8.04e-01 1.56e-01f  1
   4  6.3411154e+04 0.00e+00 1.92e+01  -0.6 7.28e-01    -  7.96e-01 3.86e-02h  3
   5  6.2605948e+04 0.00e+00 1.06e+01  -0.7 9.86e-01    -  3.30e-01 3.30e-01s 21
   6  6.2591797e+04 0.00e+00 1.17e+01  -6.6 7.42e-01    -  4.07e-01 1.65e-01f  2
   7  6.2485568e+04 0.00e+00 4.89e+00  -1.1 4.73e-01    -  6.88e-01 6.88e-01s 22
   8  6.2195635e+04 0.00e+00 2.91e+00  -1.3 4.43e-01    -  3.67e-01 3.67e-01s 21
   9  6.1738383e+04 0.00e+00 1.80e+07  -1.4 4.04e-01    -  8.61e-01 2.00e-01f  3
iter    objective    inf_pr   inf_du lg(mu)  ||d||  lg(rg) alpha_du alpha_pr  ls
  10  5.9735558e+04 0.00e+00 5.55e+06  -1.0 9.68e-01    -  1.00e+00 4.43e-01f  1
  11  5.9772573e+04 0.00e+00 9.04e-01  -1.3 2.49e-01    -  1.00e+00 1.00e+00s 22
  12  5.8575319e+04 0.00e+00 6.41e+06  -1.4 4.24e-01    -  1.00e+00 6.76e-01f  1
  13  5.6687814e+04 0.00e+00 6.76e+06  -2.6 6.33e-01    -  5.48e-01 4.11e-01f  1
  14  6.1092052e+04 0.00e+00 3.68e+06  -1.0 9.56e-01    -  1.00e+00 8.97e-01f  1
  15  5.8564119e+04 0.00e+00 1.49e+07  -1.1 8.55e-01    -  2.70e-01 9.35e-01f  1
  16  5.7679012e+04 0.00e+00 8.26e+06  -1.1 9.24e-01    -  5.25e-01 6.26e-01f  1
  17  5.6902082e+04 0.00e+00 5.88e-01  -1.1 4.35e-01    -  1.00e+00 1.00e+00f  1
  18  5.5184960e+04 0.00e+00 8.49e+06  -7.1 5.06e-01    -  4.39e-01 7.70e-01f  1
  19  5.3618621e+04 0.00e+00 2.94e-01  -1.5 2.86e-01    -  1.00e+00 1.00e+00f  1
iter    objective    inf_pr   inf_du lg(mu)  ||d||  lg(rg) alpha_du alpha_pr  ls
  20  5.2905647e+04 0.00e+00 1.03e+06  -1.8 3.98e-01    -  8.23e-01 7.58e-01f  1
  21  5.2828266e+04 0.00e+00 1.65e+06  -1.5 4.41e-01    -  1.00e+00 6.45e-01f  1
  22  5.1843236e+04 0.00e+00 1.59e+06  -1.8 3.39e-01    -  9.00e-01 1.00e+00f  1
  23  5.2119185e+04 0.00e+00 3.32e+06  -1.5 8.85e-01    -  1.00e+00 3.92e-01f  1
  24  5.1707170e+04 0.00e+00 1.91e+06  -1.6 4.61e-01    -  7.91e-01 1.00e+00f  1
  25  5.1525128e+04 0.00e+00 3.50e-01  -1.6 1.28e+00    -  8.98e-01 5.38e-01f  1
  26  5.0801288e+04 0.00e+00 3.22e-01  -2.1 5.52e-01    -  5.85e-01 3.57e-01f  1
  27  5.0153490e+04 0.00e+00 3.12e-01  -2.0 6.46e-01    -  8.04e-01 6.15e-01f  1
  28  4.9837163e+04 0.00e+00 3.40e-01  -2.0 1.07e+00    -  7.42e-01 4.53e-01f  1
  29  4.9625237e+04 0.00e+00 5.01e-01  -2.0 1.02e+00    -  8.70e-01 3.54e-01f  1
iter    objective    inf_pr   inf_du lg(mu)  ||d||  lg(rg) alpha_du alpha_pr  ls
  30  4.9459364e+04 0.00e+00 5.78e-01  -2.0 1.42e+00    -  9.43e-01 2.74e-01f  1
  31  4.9304529e+04 0.00e+00 4.48e-01  -2.0 1.49e+00    -  8.82e-01 3.84e-01f  1
  32  4.9132878e+04 0.00e+00 3.77e-01  -2.2 1.83e+00    -  6.66e-01 2.89e-01f  1
  33  4.8995686e+04 0.00e+00 3.86e-01  -2.2 1.68e+00    -  9.43e-01 2.76e-01f  1
  34  4.8784273e+04 0.00e+00 5.21e-01  -2.2 1.20e+00    -  9.55e-01 4.11e-01f  1
  35  4.8644530e+04 0.00e+00 5.82e-01  -2.3 1.56e+00    -  9.64e-01 3.30e-01f  1
  36  4.8552323e+04 0.00e+00 5.44e-01  -2.3 1.50e+00    -  9.79e-01 2.28e-01f  1
  37  4.8458825e+04 0.00e+00 5.18e-01  -2.3 1.26e+00    -  5.99e-01 3.64e-01f  1
  38  4.8389142e+04 0.00e+00 5.38e-01  -2.3 1.45e+00    -  3.00e-01 4.29e-01f  1
  39  4.8182402e+04 0.00e+00 3.79e-01  -2.8 1.02e+00    -  4.83e-01 2.94e-01f  1
iter    objective    inf_pr   inf_du lg(mu)  ||d||  lg(rg) alpha_du alpha_pr  ls
  40  4.8074348e+04 0.00e+00 2.73e-01  -2.5 8.46e-01    -  9.66e-01 5.39e-01f  1
  41  4.8019841e+04 0.00e+00 4.01e-01  -2.5 1.48e+00    -  8.93e-01 3.45e-01f  1
  42  4.7994733e+04 0.00e+00 3.74e-01  -2.5 1.52e+00    -  6.26e-01 2.68e-01f  1
  43  4.7911828e+04 0.00e+00 3.73e-01  -2.8 2.21e+00    -  2.68e-01 1.84e-01f  1
  44  4.8016427e+04 0.00e+00 3.49e-01  -2.3 1.45e+00    -  4.89e-01 2.87e-01f  1
  45  4.7886273e+04 0.00e+00 3.72e-01  -2.5 7.16e-01    -  5.29e-01 8.48e-01f  1
  46  4.7876706e+04 0.00e+00 3.72e-01  -2.4 2.01e+00    -  2.17e-01 1.17e-01f  1
  47  4.7858382e+04 0.00e+00 3.70e-01  -2.4 1.29e+00    -  2.91e-01 3.40e-01f  1
  48  4.7780808e+04 0.00e+00 3.52e-01  -8.4 2.24e+00    -  1.87e-01 9.65e-02f  1
  49  4.7755653e+04 0.00e+00 2.60e-01  -2.5 1.61e+00    -  6.21e-01 3.36e-01f  1
iter    objective    inf_pr   inf_du lg(mu)  ||d||  lg(rg) alpha_du alpha_pr  ls
  50  4.7694966e+04 0.00e+00 2.00e-01  -2.6 8.92e-01    -  8.89e-01 4.50e-01f  1
  51  4.7647585e+04 0.00e+00 2.61e-01  -2.6 1.21e+00    -  4.42e-01 4.19e-01f  1
  52  4.7627482e+04 0.00e+00 2.33e-01  -2.6 1.06e+00    -  6.55e-01 2.12e-01f  1
  53  4.7590129e+04 0.00e+00 2.83e-01  -2.6 1.55e+00    -  4.05e-01 3.98e-01f  1
  54  4.7707506e+04 0.00e+00 3.30e-01  -2.3 1.47e+00    -  5.25e-01 2.68e-01f  1
  55  4.7662527e+04 0.00e+00 2.31e-01  -2.5 9.85e-01    -  4.33e-01 4.34e-01f  1
  56  4.7631971e+04 0.00e+00 2.26e-01  -2.5 1.08e+00    -  2.84e-01 2.68e-01f  1
  57  4.7616984e+04 0.00e+00 2.12e-01  -2.5 4.08e+00    -  3.34e-01 1.20e-01f  1
  58  4.7567919e+04 0.00e+00 1.68e-01  -2.5 1.18e+00    -  8.77e-01 5.83e-01f  1
  59  4.7555502e+04 0.00e+00 1.80e-01  -2.5 1.60e+00    -  3.72e-01 3.03e-01f  1
iter    objective    inf_pr   inf_du lg(mu)  ||d||  lg(rg) alpha_du alpha_pr  ls
  60  4.7546370e+04 0.00e+00 1.76e-01  -2.5 2.10e+00    -  4.70e-01 2.48e-01f  1
  61  4.7480695e+04 0.00e+00 1.59e-01  -2.7 1.29e+00    -  7.81e-01 3.16e-01f  1
  62  4.7441966e+04 0.00e+00 1.63e-01  -2.6 1.10e+00    -  5.46e-01 3.33e-01f  1
  63  4.7421668e+04 0.00e+00 1.70e-01  -2.6 1.82e+00    -  3.18e-01 2.11e-01f  1
  64  4.7391665e+04 0.00e+00 1.82e-01  -2.6 9.64e-01    -  3.14e-01 5.14e-01f  1
  65  4.7379925e+04 0.00e+00 1.25e-01  -2.6 9.25e-01    -  6.36e-01 3.54e-01f  1
  66  4.7186353e+04 0.00e+00 1.49e-01  -3.4 7.76e-01    -  4.48e-01 4.14e-01f  1
  67  4.7178578e+04 0.00e+00 8.84e-02  -2.9 9.21e-01    -  9.77e-01 1.45e-01f  1
  68  4.7212634e+04 0.00e+00 1.07e-01  -2.6 4.08e+00    -  1.78e-01 1.56e-01f  1
  69  4.7152071e+04 0.00e+00 2.96e-01  -2.9 4.22e-01    -  6.90e-01 5.88e-01f  1
iter    objective    inf_pr   inf_du lg(mu)  ||d||  lg(rg) alpha_du alpha_pr  ls
  70  4.7102193e+04 0.00e+00 1.91e-01  -3.1 2.35e+00    -  1.98e-01 2.04e-01f  1
  71  4.7089969e+04 0.00e+00 7.10e-01  -2.9 1.11e+00    -  4.79e-01 3.29e-01f  1
  72  4.7074809e+04 0.00e+00 6.12e-01  -2.9 7.86e-01    -  3.42e-01 4.32e-01f  1
  73  4.7106241e+04 0.00e+00 3.72e-01  -2.5 4.77e+00    -  2.15e-01 7.62e-02f  1
  74  4.7094466e+04 0.00e+00 2.55e-01  -2.9 8.70e-01    -  5.15e-01 1.55e-01f  1
  75  4.7078209e+04 0.00e+00 2.45e-01  -2.9 3.57e+00    -  8.46e-02 1.29e-01f  1
  76  4.7068813e+04 0.00e+00 2.20e-01  -2.9 5.21e+00    -  2.58e-01 8.24e-02f  1
  77  4.7053402e+04 0.00e+00 2.30e-01  -2.9 1.24e+00    -  3.12e-01 4.17e-01f  1
  78  4.7034734e+04 0.00e+00 1.76e-01  -3.1 1.97e+00    -  3.60e-01 1.04e-01f  1
  79  4.7018490e+04 0.00e+00 1.93e-01  -2.9 1.53e+00    -  7.16e-01 3.22e-01f  1
iter    objective    inf_pr   inf_du lg(mu)  ||d||  lg(rg) alpha_du alpha_pr  ls
  80  4.7010506e+04 0.00e+00 1.85e-01  -2.9 1.26e+00    -  5.48e-01 2.36e-01f  1
  81  4.7002563e+04 0.00e+00 1.22e-01  -2.9 1.17e+00    -  5.98e-01 3.32e-01f  1
  82  4.6958128e+04 0.00e+00 1.09e-01  -3.0 7.46e-01    -  5.31e-01 5.40e-01f  1
  83  4.7030334e+04 0.00e+00 8.15e-02  -2.7 1.40e+00    -  6.58e-01 2.81e-01f  1
  84  4.6994796e+04 0.00e+00 8.18e-02  -2.9 3.81e-01    -  4.71e-01 1.00e+00f  1
  85  4.6986155e+04 0.00e+00 7.90e-02  -2.9 7.33e-01    -  4.65e-01 6.21e-01f  1
  86  4.6983038e+04 0.00e+00 4.75e-02  -2.9 1.32e+00    -  7.02e-01 2.77e-01f  1
  87  4.6978845e+04 0.00e+00 1.71e-01  -2.9 8.26e-01    -  6.47e-01 5.00e-01f  1
  88  4.6976646e+04 0.00e+00 1.22e-01  -2.9 2.97e+00    -  3.51e-01 2.01e-01f  1
  89  4.6973126e+04 0.00e+00 6.14e-02  -2.9 3.04e-01    -  1.00e+00 8.97e-01f  1
iter    objective    inf_pr   inf_du lg(mu)  ||d||  lg(rg) alpha_du alpha_pr  ls
  90  4.6967768e+04 0.00e+00 9.38e-02  -2.9 1.12e+00    -  3.23e-01 5.76e-01f  1
  91  4.6964781e+04 0.00e+00 1.00e-01  -2.9 1.49e+00    -  3.79e-01 3.47e-01f  1
  92  4.6962139e+04 0.00e+00 1.03e-01  -2.9 7.69e-01    -  7.80e-01 4.60e-01f  1
  93  4.6957656e+04 0.00e+00 8.35e-02  -2.9 1.22e+00    -  1.00e+00 4.98e-01f  1
  94  4.6934032e+04 0.00e+00 6.48e-02  -3.1 1.26e+00    -  4.34e-01 1.67e-01f  1
  95  4.6906445e+04 0.00e+00 4.51e-02  -3.0 1.28e+00    -  9.40e-01 3.76e-01f  1
  96  4.6854350e+04 0.00e+00 6.34e-02  -3.1 1.11e+00    -  5.79e-01 5.74e-01f  1
  97  4.6846627e+04 0.00e+00 6.25e-02  -3.0 1.58e+00    -  8.97e-01 3.83e-01f  1
  98  4.6820688e+04 0.00e+00 1.14e-01  -3.2 6.80e-01    -  9.56e-01 2.62e-01f  1
  99  4.6853115e+04 0.00e+00 3.16e-01  -2.9 3.26e+00    -  3.59e-01 2.22e-01f  1
iter    objective    inf_pr   inf_du lg(mu)  ||d||  lg(rg) alpha_du alpha_pr  ls
 100  4.6828273e+04 0.00e+00 1.31e-01  -3.2 8.86e-01    -  2.81e-01 2.73e-01f  1
 101  4.6796234e+04 0.00e+00 6.66e-02  -3.2 1.54e+00    -  1.63e-01 5.01e-01f  1
 102  4.6791881e+04 0.00e+00 5.63e-02  -3.1 3.81e-01    -  7.61e-01 4.26e-01f  1
 103  4.6790998e+04 0.00e+00 1.13e-01  -3.1 5.73e+00    -  2.12e-01 1.20e-01f  1
 104  4.6786681e+04 0.00e+00 1.13e-01  -3.1 3.48e-01    -  6.68e-01 7.08e-01f  1
 105  4.6776519e+04 0.00e+00 1.07e-01  -3.2 2.41e-01    -  8.55e-01 3.79e-01f  1
 106  4.6775247e+04 0.00e+00 6.94e-02  -3.2 2.63e+00    -  2.06e-01 1.53e-01f  1
 107  4.6769730e+04 0.00e+00 8.04e-02  -3.2 4.63e-01    -  4.65e-01 6.14e-01f  1
 108  4.6768416e+04 0.00e+00 6.73e-02  -3.2 9.92e-01    -  6.63e-01 2.47e-01f  1
 109  4.6813946e+04 0.00e+00 5.18e-02  -2.9 1.05e+00    -  4.56e-01 2.39e-01f  1
iter    objective    inf_pr   inf_du lg(mu)  ||d||  lg(rg) alpha_du alpha_pr  ls
 110  4.6797781e+04 0.00e+00 6.87e-02  -3.1 9.79e-01    -  1.86e-01 4.22e-01f  1
 111  4.6793574e+04 0.00e+00 7.82e-02  -3.1 2.94e+00    -  3.12e-01 1.29e-01f  1
 112  4.6775518e+04 0.00e+00 3.25e-02  -3.1 2.05e-01    -  1.00e+00 1.00e+00f  1
 113  4.6772090e+04 0.00e+00 3.16e-02  -3.1 1.60e-01    -  1.00e+00 1.00e+00f  1
 114  4.6772008e+04 0.00e+00 2.76e-02  -3.1 3.36e-01    -  9.50e-01 6.31e-01f  1
 115  4.6772209e+04 0.00e+00 4.33e-02  -3.1 3.58e-01    -  1.00e+00 1.00e+00f  1
 116  4.6771618e+04 0.00e+00 4.46e-02  -3.1 9.96e-01    -  4.69e-01 5.50e-01f  1
 117  4.6770231e+04 0.00e+00 1.57e-02  -3.1 2.78e-01    -  1.00e+00 9.00e-01f  1
 118  4.6767909e+04 0.00e+00 1.20e-02  -3.1 1.97e-01    -  1.00e+00 1.00e+00f  1
 119  4.6646948e+04 0.00e+00 4.17e-02  -9.1 5.21e-01    -  3.63e-01 4.89e-01f  1
iter    objective    inf_pr   inf_du lg(mu)  ||d||  lg(rg) alpha_du alpha_pr  ls
 120  4.6791875e+04 0.00e+00 4.63e-02  -3.1 2.50e-01    -  1.00e+00 1.00e+00f  1
 121  4.6746793e+04 0.00e+00 2.73e-02  -3.2 4.85e-01    -  3.14e-01 8.12e-01f  1
 122  4.6732590e+04 0.00e+00 5.03e-02  -3.2 7.98e-01    -  9.24e-01 1.00e+00f  1
 123  4.6731084e+04 0.00e+00 4.96e-02  -3.2 1.10e+00    -  6.56e-01 6.06e-01f  1
 124  4.6732058e+04 0.00e+00 1.63e-02  -3.2 3.17e-01    -  1.00e+00 1.00e+00f  1
 125  4.6731092e+04 0.00e+00 2.19e-02  -3.2 1.52e-01    -  9.90e-01 1.00e+00f  1
 126  4.6731070e+04 0.00e+00 3.29e-02  -3.2 3.64e-01    -  7.09e-01 1.00e+00f  1
 127  4.6730324e+04 0.00e+00 6.52e-02  -3.2 2.04e-01    -  1.00e+00 1.00e+00f  1
 128  4.6729115e+04 0.00e+00 6.30e-02  -3.2 2.40e+00    -  1.57e-01 2.33e-01f  1
 129  4.6728122e+04 0.00e+00 2.10e-02  -3.2 2.80e-01    -  9.91e-01 9.24e-01f  1
iter    objective    inf_pr   inf_du lg(mu)  ||d||  lg(rg) alpha_du alpha_pr  ls
 130  4.6727372e+04 0.00e+00 1.77e-02  -3.2 1.13e-01    -  1.00e+00 1.00e+00f  1
 131  4.6726789e+04 0.00e+00 3.14e-02  -3.2 2.11e-01    -  7.31e-01 8.92e-01f  1
 132  4.6726438e+04 0.00e+00 2.22e-02  -3.2 1.67e-01    -  1.00e+00 1.00e+00f  1
 133  4.6725773e+04 0.00e+00 1.30e-02  -3.2 2.21e-01    -  8.35e-01 8.18e-01f  1
 134  4.6725339e+04 0.00e+00 1.89e-02  -3.2 1.20e-01    -  1.00e+00 1.00e+00f  1
 135  4.6724834e+04 0.00e+00 6.78e-02  -3.2 3.01e-01    -  6.87e-01 1.00e+00f  1
 136  4.6724532e+04 0.00e+00 1.51e-02  -3.2 2.81e-01    -  1.00e+00 1.00e+00f  1
 137  4.6723942e+04 0.00e+00 1.68e-02  -3.2 7.39e-02    -  1.00e+00 1.00e+00f  1
 138  4.6723739e+04 0.00e+00 2.19e-02  -3.2 1.15e+00    -  1.80e-01 2.49e-01f  2
 139  4.6723171e+04 0.00e+00 2.50e-02  -3.2 1.23e-01    -  1.00e+00 1.00e+00f  1
iter    objective    inf_pr   inf_du lg(mu)  ||d||  lg(rg) alpha_du alpha_pr  ls
 140  4.6723121e+04 0.00e+00 1.64e-02  -3.2 4.92e-01    -  6.93e-01 6.78e-01f  1
 141  4.6722804e+04 0.00e+00 4.02e-02  -3.2 1.97e-01    -  1.00e+00 1.00e+00f  1
 142  4.6722425e+04 0.00e+00 3.79e-02  -3.2 6.35e-01    -  2.78e-01 4.26e-01f  2
 143  4.6722040e+04 0.00e+00 2.61e-02  -3.2 1.47e-01    -  1.00e+00 1.00e+00f  1
 144  4.6721580e+04 0.00e+00 4.15e-02  -3.2 4.33e-01    -  4.71e-01 7.38e-01f  1
 145  4.6721112e+04 0.00e+00 2.20e-02  -3.2 1.48e-01    -  1.00e+00 1.00e+00f  1
 146  4.6720670e+04 0.00e+00 2.07e-02  -3.2 2.12e-01    -  8.61e-01 1.00e+00f  1
 147  4.6720377e+04 0.00e+00 2.17e-02  -3.2 1.87e-01    -  9.91e-01 1.00e+00f  1
 148  4.6720217e+04 0.00e+00 1.36e-02  -3.2 6.18e-01    -  7.59e-01 2.52e-01f  2
 149  4.6720004e+04 0.00e+00 2.31e-02  -3.2 6.53e-02    -  1.00e+00 1.00e+00f  1
iter    objective    inf_pr   inf_du lg(mu)  ||d||  lg(rg) alpha_du alpha_pr  ls
 150  4.6719460e+04 0.00e+00 3.01e-02  -3.2 3.36e-01    -  4.12e-01 1.00e+00f  1

Number of Iterations....: 150

                                   (scaled)                 (unscaled)
Objective...............:   2.5228465510025812e+03    4.6719460288114242e+04
Dual infeasibility......:   3.0084792146939706e-02    5.5712673108340893e-01
Constraint violation....:   0.0000000000000000e+00    0.0000000000000000e+00
Complementarity.........:   7.7652732155345525e-04    1.4380160120136952e-02
Overall NLP error.......:   1.9266435653323939e-02    5.5712673108340893e-01


Number of objective function evaluations             = 252
Number of objective gradient evaluations             = 151
Number of equality constraint evaluations            = 0
Number of inequality constraint evaluations          = 252
Number of equality constraint Jacobian evaluations   = 0
Number of inequality constraint Jacobian evaluations = 151
Number of Lagrangian Hessian evaluations             = 0
Total CPU secs in IPOPT (w/o function evaluations)   =     45.657
Total CPU secs in NLP function evaluations           =    112.691

EXIT: Maximum Number of Iterations Exceeded.
